This is Ipopt version 3.14.16, running with linear solver MUMPS 5.7.3.

Number of nonzeros in equality constraint Jacobian...:        0
Number of nonzeros in inequality constraint Jacobian.:       25
Number of nonzeros in Lagrangian Hessian.............:        0

Total number of variables............................:        5
                     variables with only lower bounds:        0
                variables with lower and upper bounds:        5
                     variables with only upper bounds:        0
Total number of equality constraints.................:        0
Total number of inequality constraints...............:        5
        inequality constraints with only lower bounds:        0
   inequality constraints with lower and upper bounds:        0
        inequality constraints with only upper bounds:        5

iter    objective    inf_pr   inf_du lg(mu)  ||d||  lg(rg) alpha_du alpha_pr  ls
   0  2.1726858e-02 0.00e+00 1.00e+00   0.0 0.00e+00    -  0.00e+00 0.00e+00   0
   1  2.1639118e-02 0.00e+00 1.95e-02  -5.3 1.62e-02    -  9.80e-01 1.00e+00h  1
   2  1.9138878e-02 0.00e+00 8.70e-04  -2.5 1.75e-01    -  9.90e-01 1.00e+00h  1
   3  9.1216088e-03 0.00e+00 1.35e-02  -3.3 1.98e+00    -  9.41e-01 1.00e+00h  1
   4  7.8745609e-03 0.00e+00 3.14e-03  -4.5 2.30e+01    -  1.00e+00 1.00e+00h  1
   5  7.8645468e-03 0.00e+00 1.42e-04  -5.4 2.53e+00    -  1.00e+00 1.00e+00h  1

Number of Iterations....: 5

                                   (scaled)                 (unscaled)
Objective...............:   7.8645468233707015e-03    7.8645468233707015e-03
Dual infeasibility......:   1.4206748704648608e-04    1.4206748704648608e-04
Constraint violation....:   0.0000000000000000e+00    0.0000000000000000e+00
Variable bound violation:   0.0000000000000000e+00    0.0000000000000000e+00
Complementarity.........:   2.0497667363750993e-05    2.0497667363750993e-05
Overall NLP error.......:   1.4206748704648608e-04    1.4206748704648608e-04


Number of objective function evaluations             = 6
Number of objective gradient evaluations             = 6
Number of equality constraint evaluations            = 0
Number of inequality constraint evaluations          = 6
Number of equality constraint Jacobian evaluations   = 0
Number of inequality constraint Jacobian evaluations = 6
Number of Lagrangian Hessian evaluations             = 0
Total seconds in IPOPT                               = 0.159

EXIT: Optimal Solution Found.
